% demand
num_movements = 31;
loading_factor = [1400, 1650, 1050, 1300, 1600, 1050, 1650, 1250, 850, 1200, 1000, 1750, 1200, 1050, 1000, 1000, 1000, 1950, 1450, 1250, 1300, 1850, 1450, 850, 1400, 1300, 1600, 1450, 1800, 1700, 1200];
pickup_time = [0, 0, 0, 1, 1, 1, 1, 2, 2, 2, 2, 3, 3, 3, 3, 3, 3, 5, 5, 5, 6, 7, 7, 7, 7, 9, 9, 10, 10, 10, 11];
delivery_time = [2, 1, 1, 2, 2, 2, 2, 3, 3, 3, 3, 5, 5, 7, 4, 5, 4, 7, 9, 7, 7, 9, 9, 12, 9, 10, 10, 11, 12, 11, 12];

% transporter definition
total_capacity = 7000;
num_decks = 3;
capacity = [3000, 1000, 3000];

% ways out of decks
num_ways_out = 1;
paths_out = array3d(decks, ways_out, decks, [
% ways out of deck d1
2, 3, 0, 

% ways out of deck d2
3, 0, 0, 

% ways out of deck d3
0, 0, 0,	

]);

